100 237
10 18 3
14 34 1
12 26 1
10 34 2
13 29 2
9 30 1
18 33 1
14 17 2
14 33 2
10 12 2
13 32 6
19 33 4
17 32 2
8 32 1
15 32 1
14 31 2
12 32 1
12 31 2
17 24 2
11 32 1
15 34 1
9 19 2
14 18 2
13 36 1
12 19 2
12 15 6
13 23 4
13 16 6
18 19 2
6 14 16
18 32 2
9 14 2
7 30 2
21 23 2
12 22 2
16 31 2
8 10 2
15 30 2
15 37 2
12 33 2
16 33 2
15 18 2
17 33 1
14 32 1
5 27 2
6 8 3
6 13 1
9 18 1
6 11 1
6 18 1
7 18 2
6 20 2
8 18 6
9 27 6
8 27 2
5 17 2
8 26 2
7 24 2
7 7 2
9 29 4
6 39 4
7 26 2
7 25 4
10 21 2
6 32 4
6 28 6
14 21 1
6 25 2
6 24 2
4 20 2
11 21 1
7 28 2
7 27 2
6 30 4
6 27 4
9 31 2
8 34 2
8 28 2
8 9 4
9 28 2
9 9 2
8 33 2
7 21 2
7 22 2
8 29 2
9 13 1
5 13 2
8 13 1
8 15 1
8 20 1
5 16 2
5 15 3
5 14 3
21 35 2
23 33 3
20 33 2
10 13 2
12 27 2
16 25 1
15 29 1
50 100 
50 100 
50 100 
50 100 
50 100 
50 100 
50 100 
50 100 
50 100 
50 100 
50 100 
50 100 
50 100 
50 100 
50 100 
50 100 
50 100 
50 100 
50 100 
50 100 
50 100 
50 100 
50 100 
50 100 
50 100 
50 100 
50 100 
50 100 
50 100 
50 100 
50 100 
50 100 
50 100 
50 100 
50 100 
50 100 
50 100 
50 100 
50 100 
50 100 
50 100 
50 100 
50 100 
50 100 
50 100 
50 100 
50 100 
50 100 
50 100 
50 100 
50 100 
50 100 
50 100 
50 100 
50 100 
50 100 
50 100 
50 100 
50 100 
50 100 
50 100 
50 100 
50 100 
50 100 
50 100 
50 100 
50 100 
50 100 
50 100 
50 100 
50 100 
50 100 
50 100 
50 100 
50 100 
50 100 
50 100 
50 100 
50 100 
50 100 
50 100 
50 100 
50 100 
50 100 
50 100 
50 100 
50 100 
50 100 
50 100 
50 100 
50 100 
50 100 
50 100 
50 100 
50 100 
50 100 
50 100 
50 100 
50 100 
50 100 
50 100 
50 100 
50 100 
50 100 
50 100 
50 100 
50 100 
50 100 
50 100 
50 100 
50 100 
50 100 
50 100 
50 100 
50 100 
50 100 
50 100 
50 100 
50 100 
50 100 
50 100 
50 100 
50 100 
50 100 
50 100 
50 100 
50 100 
50 100 
50 100 
50 100 
50 100 
50 100 
50 100 
50 100 
50 100 
50 100 
50 100 
50 100 
50 100 
50 100 
50 100 
50 100 
50 100 
50 100 
50 100 
50 100 
50 100 
50 100 
50 100 
50 100 
50 100 
50 100 
50 100 
50 100 
50 100 
50 100 
50 100 
50 100 
50 100 
50 100 
50 100 
50 100 
50 100 
50 100 
50 100 
50 100 
50 100 
50 100 
50 100 
50 100 
50 100 
50 100 
50 100 
50 100 
50 100 
50 100 
50 100 
50 100 
50 100 
50 100 
50 100 
50 100 
50 100 
50 100 
50 100 
50 100 
50 100 
50 100 
50 100 
50 100 
50 100 
50 100 
50 100 
50 100 
50 100 
50 100 
50 100 
50 100 
50 100 
50 100 
50 100 
50 100 
50 100 
50 100 
50 100 
50 100 
50 100 
50 100 
50 100 
50 100 
50 100 
50 100 
50 100 
50 100 
50 100 
50 100 
50 100 
50 100 
50 100 
50 100 
50 100 
50 100 
50 100 
50 100 
50 100 
50 100 
50 100 
50 100 
50 100 
50 100 
50 100 
50 100 
50 100 
50 100 
50 100 
50 100 
50 100 
